Academic license - for non-commercial use only
Optimize a model with 5180 rows, 4800 columns and 815128 nonzeros
Variable types: 0 continuous, 4800 integer (4800 binary)
Coefficient statistics:
  Matrix range     [1e+00, 5e+01]
  Objective range  [1e+00, 9e+01]
  Bounds range     [1e+00, 1e+00]
  RHS range        [1e+00, 3e+02]
Presolve removed 1016 rows and 854 columns
Presolve time: 3.10s
Presolved: 4164 rows, 3946 columns, 647791 nonzeros
Variable types: 0 continuous, 3946 integer (3946 binary)

Root relaxation: objective 1.445803e+02, 134 iterations, 0.08 seconds

    Nodes    |    Current Node    |     Objective Bounds      |     Work
 Expl Unexpl |  Obj  Depth IntInf | Incumbent    BestBd   Gap | It/Node Time

     0     0  144.58031    0   69          -  144.58031      -     -    3s
     0     0  269.07942    0   70          -  269.07942      -     -    5s
     0     0  322.05775    0   73          -  322.05775      -     -    6s
     0     0  371.42270    0   66          -  371.42270      -     -    6s
     0     0  374.72727    0   65          -  374.72727      -     -    7s
     0     0  374.72727    0   70          -  374.72727      -     -    7s
     0     0  397.26530    0   82          -  397.26530      -     -    8s
     0     0  397.87266    0   76          -  397.87266      -     -    8s
     0     0  417.36842    0   37          -  417.36842      -     -    9s
     0     0  417.46661    0   90          -  417.46661      -     -   10s
     0     0  417.47104    0   35          -  417.47104      -     -   10s
     0     0  430.27716    0   94          -  430.27716      -     -   11s
     0     0  430.37195    0   42          -  430.37195      -     -   11s
     0     0  447.93447    0   92          -  447.93447      -     -   12s
     0     0  448.13960    0   44          -  448.13960      -     -   12s
     0     0  462.71642    0   93          -  462.71642      -     -   13s
     0     0  463.51961    0   92          -  463.51961      -     -   14s
H    0     0                     838.0000000  463.51961  44.7%     -   14s
H    0     0                     805.0000000  463.51961  42.4%     -   14s
     0     0  481.00000    0   39  805.00000  481.00000  40.2%     -   14s
H    0     0                     743.0000000  481.00000  35.3%     -   15s
     0     0  481.00000    0   38  743.00000  481.00000  35.3%     -   15s
     0     0  491.00000    0   36  743.00000  491.00000  33.9%     -   16s
H    0     0                     727.0000000  491.00000  32.5%     -   16s
     0     0  491.00000    0   37  727.00000  491.00000  32.5%     -   16s
     0     0  500.00000    0   39  727.00000  500.00000  31.2%     -   17s
H    0     0                     722.0000000  500.00000  30.7%     -   18s
     0     0  508.53030    0   39  722.00000  508.53030  29.6%     -   18s
H    0     0                     716.0000000  508.53030  29.0%     -   18s
     0     0  508.53030    0   44  716.00000  508.53030  29.0%     -   19s
     0     0  517.00000    0   22  716.00000  517.00000  27.8%     -   19s
H    0     0                     696.0000000  517.00000  25.7%     -   20s
     0     0  525.00000    0   34  696.00000  525.00000  24.6%     -   20s
H    0     0                     694.0000000  525.00000  24.4%     -   21s
     0     0  525.00000    0   20  694.00000  525.00000  24.4%     -   21s
     0     0  532.37374    0   45  694.00000  532.37374  23.3%     -   21s
H    0     0                     689.0000000  532.37374  22.7%     -   22s
     0     0  532.39394    0   39  689.00000  532.39394  22.7%     -   22s
     0     0  539.59091    0   41  689.00000  539.59091  21.7%     -   22s
     0     0  539.75000    0   44  689.00000  539.75000  21.7%     -   23s
     0     0  547.00000    0   38  689.00000  547.00000  20.6%     -   24s
H    0     0                     678.0000000  547.00000  19.3%     -   24s
     0     0  547.00000    0   39  678.00000  547.00000  19.3%     -   25s
     0     0  553.00000    0   27  678.00000  553.00000  18.4%     -   25s
     0     0  558.80000    0   40  678.00000  558.80000  17.6%     -   26s
     0     0  558.80000    0   39  678.00000  558.80000  17.6%     -   26s
     0     0  564.50000    0   33  678.00000  564.50000  16.7%     -   27s
     0     0  564.50000    0   32  678.00000  564.50000  16.7%     -   27s
     0     0  570.00000    0   44  678.00000  570.00000  15.9%     -   28s
H    0     0                     676.0000000  570.00000  15.7%     -   29s
     0     0  570.00000    0   39  676.00000  570.00000  15.7%     -   29s
     0     0  574.00000    0   35  676.00000  574.00000  15.1%     -   30s
     0     0  574.00000    0   12  676.00000  574.00000  15.1%     -   30s
     0     0  578.00000    0   29  676.00000  578.00000  14.5%     -   31s
     0     0  578.00000    0   29  676.00000  578.00000  14.5%     -   31s
     0     0  582.00000    0   36  676.00000  582.00000  13.9%     -   31s
     0     0  584.00000    0   42  676.00000  584.00000  13.6%     -   32s
     0     0  584.00000    0   41  676.00000  584.00000  13.6%     -   33s
     0     0  587.50000    0   44  676.00000  587.50000  13.1%     -   34s
     0     0  587.50000    0   41  676.00000  587.50000  13.1%     -   34s
     0     0  591.00000    0   33  676.00000  591.00000  12.6%     -   35s
     0     0  591.00000    0   31  676.00000  591.00000  12.6%     -   35s
     0     0  594.00062    0   68  676.00000  594.00062  12.1%     -   36s
H    0     0                     622.0000000  594.00062  4.50%     -   36s
     0     0  594.00192    0   31  622.00000  594.00192  4.50%     -   36s
     0     0  597.00000    0   50  622.00000  597.00000  4.02%     -   37s
H    0     0                     614.0000000  597.00000  2.77%     -   38s
     0     0  599.00000    0   22  614.00000  599.00000  2.44%     -   39s
H    0     0                     613.0000000  599.00000  2.28%     -   43s
     0     0  599.00000    0   84  613.00000  599.00000  2.28%     -   44s
     0     0  599.00000    0   77  613.00000  599.00000  2.28%     -   46s
     0     0  599.00000    0   75  613.00000  599.00000  2.28%     -   47s
     0     0  599.00000    0   63  613.00000  599.00000  2.28%     -   47s
     0     0  599.00000    0   77  613.00000  599.00000  2.28%     -   48s
     0     0  599.00000    0   60  613.00000  599.00000  2.28%     -   48s
     0     0  599.00000    0   64  613.00000  599.00000  2.28%     -   48s
     0     0  599.00000    0   35  613.00000  599.00000  2.28%     -   49s
     0     0  599.00000    0   16  613.00000  599.00000  2.28%     -   49s
     0     0  599.00000    0   81  613.00000  599.00000  2.28%     -   49s
     0     0  599.00000    0   12  613.00000  599.00000  2.28%     -   49s
     0     0  599.00000    0   67  613.00000  599.00000  2.28%     -   49s
     0     0  599.00000    0  107  613.00000  599.00000  2.28%     -   50s
     0     0  599.00000    0  103  613.00000  599.00000  2.28%     -   50s
     0     0  600.53030    0   34  613.00000  600.53030  2.03%     -   51s
H    0     0                     612.0000000  600.53030  1.87%     -   52s
     0     0  601.00000    0   52  612.00000  601.00000  1.80%     -   52s
     0     0  602.50000    0   38  612.00000  602.50000  1.55%     -   54s
H    0     0                     609.0000000  602.50000  1.07%     -   54s
     0     0  604.00000    0    4  609.00000  604.00000  0.82%     -   55s
     0     0  604.00000    0   96  609.00000  604.00000  0.82%     -   59s
     0     0  604.00000    0   82  609.00000  604.00000  0.82%     -   60s
     0     0  604.00000    0   86  609.00000  604.00000  0.82%     -   60s
     0     0  604.00000    0   59  609.00000  604.00000  0.82%     -   60s
     0     0  604.00000    0   44  609.00000  604.00000  0.82%     -   61s
     0     0  604.00000    0   57  609.00000  604.00000  0.82%     -   61s
     0     0  604.00000    0   57  609.00000  604.00000  0.82%     -   61s
     0     0  604.00000    0   79  609.00000  604.00000  0.82%     -   61s
     0     0  604.00000    0   43  609.00000  604.00000  0.82%     -   62s
     0     0  604.00000    0   44  609.00000  604.00000  0.82%     -   62s
     0     0  604.00000    0   35  609.00000  604.00000  0.82%     -   62s
     0     0  605.00000    0    9  609.00000  605.00000  0.66%     -   63s
     0     0  605.13962    0   68  609.00000  605.13962  0.63%     -   63s
     0     0  605.13962    0   84  609.00000  605.13962  0.63%     -   66s
     0     0  605.13962    0   73  609.00000  605.13962  0.63%     -   66s
     0     0  605.13962    0   88  609.00000  605.13962  0.63%     -   66s
     0     0  605.13962    0   49  609.00000  605.13962  0.63%     -   66s
     0     0  605.13962    0   53  609.00000  605.13962  0.63%     -   66s
     0     0  605.13962    0   59  609.00000  605.13962  0.63%     -   67s
     0     0  605.13962    0   62  609.00000  605.13962  0.63%     -   67s
     0     0  605.13962    0   60  609.00000  605.13962  0.63%     -   67s
     0     0  605.13962    0   51  609.00000  605.13962  0.63%     -   67s
     0     0  605.13962    0   52  609.00000  605.13962  0.63%     -   67s
     0     0  605.13962    0   71  609.00000  605.13962  0.63%     -   67s
     0     0  605.13962    0   75  609.00000  605.13962  0.63%     -   67s
     0     0  606.00000    0   21  609.00000  606.00000  0.49%     -   67s
     0     0  607.00000    0   18  609.00000  607.00000  0.33%     -   68s
     0     0  607.00000    0   21  609.00000  607.00000  0.33%     -   68s
     0     0  607.00000    0   52  609.00000  607.00000  0.33%     -   69s
     0     0  607.00000    0   62  609.00000  607.00000  0.33%     -   69s
     0     0  607.00000    0   58  609.00000  607.00000  0.33%     -   69s
     0     0  607.00000    0   43  609.00000  607.00000  0.33%     -   69s
     0     0  607.00000    0   43  609.00000  607.00000  0.33%     -   69s
     0     0  607.00000    0   48  609.00000  607.00000  0.33%     -   70s
     0     0  607.00000    0   55  609.00000  607.00000  0.33%     -   70s
     0     0  607.00000    0   43  609.00000  607.00000  0.33%     -   70s
     0     0  607.00000    0   84  609.00000  607.00000  0.33%     -   70s
     0     0  607.00000    0   68  609.00000  607.00000  0.33%     -   70s
     0     0  607.00000    0   44  609.00000  607.00000  0.33%     -   70s
     0     0  607.00000    0   45  609.00000  607.00000  0.33%     -   70s
     0     0  607.00000    0   30  609.00000  607.00000  0.33%     -   70s
     0     0  607.00000    0   38  609.00000  607.00000  0.33%     -   70s
*    0     0               0     607.0000000  607.00000  0.00%     -   70s

Cutting planes:
  Gomory: 2
  Cover: 1
  Clique: 97
  MIR: 3
  GUB cover: 1

Explored 1 nodes (17841 simplex iterations) in 70.80 seconds
Thread count was 8 (of 8 available processors)

Solution count 10: 607 609 612 ... 694

Optimal solution found (tolerance 1.00e-04)
Best objective 6.070000000000e+02, best bound 6.070000000000e+02, gap 0.0000%

